c description: Graph pigeonhole principle formula on fast_gnp_random_graph(10,25,0.9)
c generator: CNFgen (0.9.0)
c copyright: (C) 2012-2020 Massimo Lauria <massimo.lauria@uniroma1.it>
c url: https://massimolauria.net/cnfgen
c
p cnf 227 938
1 2 3 4 5 6 7 8 9 10 11 12 13 14 15 16 17 18 19 20 21 22 23 24 25 0
26 27 28 29 30 31 32 33 34 35 36 37 38 39 40 41 42 43 44 45 46 47 0
48 49 50 51 52 53 54 55 56 57 58 59 60 61 62 63 64 65 66 67 68 69 70 0
71 72 73 74 75 76 77 78 79 80 81 82 83 84 85 86 87 88 89 90 91 92 0
93 94 95 96 97 98 99 100 101 102 103 104 105 106 107 108 109 110 111 112 113 0
114 115 116 117 118 119 120 121 122 123 124 125 126 127 128 129 130 131 132 133 134 135 136 137 0
138 139 140 141 142 143 144 145 146 147 148 149 150 151 152 153 154 155 156 157 158 159 160 161 0
162 163 164 165 166 167 168 169 170 171 172 173 174 175 176 177 178 179 180 181 0
182 183 184 185 186 187 188 189 190 191 192 193 194 195 196 197 198 199 200 201 202 203 204 0
205 206 207 208 209 210 211 212 213 214 215 216 217 218 219 220 221 222 223 224 225 226 227 0
-1 -48 0
-1 -71 0
-1 -93 0
-1 -114 0
-1 -138 0
-1 -162 0
-1 -182 0
-1 -205 0
-48 -71 0
-48 -93 0
-48 -114 0
-48 -138 0
-48 -162 0
-48 -182 0
-48 -205 0
-71 -93 0
-71 -114 0
-71 -138 0
-71 -162 0
-71 -182 0
-71 -205 0
-93 -114 0
-93 -138 0
-93 -162 0
-93 -182 0
-93 -205 0
-114 -138 0
-114 -162 0
-114 -182 0
-114 -205 0
-138 -162 0
-138 -182 0
-138 -205 0
-162 -182 0
-162 -205 0
-182 -205 0
-2 -26 0
-2 -49 0
-2 -94 0
-2 -115 0
-2 -139 0
-2 -163 0
-2 -183 0
-2 -206 0
-26 -49 0
-26 -94 0
-26 -115 0
-26 -139 0
-26 -163 0
-26 -183 0
-26 -206 0
-49 -94 0
-49 -115 0
-49 -139 0
-49 -163 0
-49 -183 0
-49 -206 0
-94 -115 0
-94 -139 0
-94 -163 0
-94 -183 0
-94 -206 0
-115 -139 0
-115 -163 0
-115 -183 0
-115 -206 0
-139 -163 0
-139 -183 0
-139 -206 0
-163 -183 0
-163 -206 0
-183 -206 0
-3 -27 0
-3 -50 0
-3 -72 0
-3 -95 0
-3 -116 0
-3 -140 0
-3 -164 0
-3 -184 0
-3 -207 0
-27 -50 0
-27 -72 0
-27 -95 0
-27 -116 0
-27 -140 0
-27 -164 0
-27 -184 0
-27 -207 0
-50 -72 0
-50 -95 0
-50 -116 0
-50 -140 0
-50 -164 0
-50 -184 0
-50 -207 0
-72 -95 0
-72 -116 0
-72 -140 0
-72 -164 0
-72 -184 0
-72 -207 0
-95 -116 0
-95 -140 0
-95 -164 0
-95 -184 0
-95 -207 0
-116 -140 0
-116 -164 0
-116 -184 0
-116 -207 0
-140 -164 0
-140 -184 0
-140 -207 0
-164 -184 0
-164 -207 0
-184 -207 0
-4 -28 0
-4 -51 0
-4 -73 0
-4 -96 0
-4 -117 0
-4 -141 0
-4 -165 0
-4 -185 0
-4 -208 0
-28 -51 0
-28 -73 0
-28 -96 0
-28 -117 0
-28 -141 0
-28 -165 0
-28 -185 0
-28 -208 0
-51 -73 0
-51 -96 0
-51 -117 0
-51 -141 0
-51 -165 0
-51 -185 0
-51 -208 0
-73 -96 0
-73 -117 0
-73 -141 0
-73 -165 0
-73 -185 0
-73 -208 0
-96 -117 0
-96 -141 0
-96 -165 0
-96 -185 0
-96 -208 0
-117 -141 0
-117 -165 0
-117 -185 0
-117 -208 0
-141 -165 0
-141 -185 0
-141 -208 0
-165 -185 0
-165 -208 0
-185 -208 0
-5 -29 0
-5 -52 0
-5 -97 0
-5 -142 0
-5 -166 0
-5 -186 0
-5 -209 0
-29 -52 0
-29 -97 0
-29 -142 0
-29 -166 0
-29 -186 0
-29 -209 0
-52 -97 0
-52 -142 0
-52 -166 0
-52 -186 0
-52 -209 0
-97 -142 0
-97 -166 0
-97 -186 0
-97 -209 0
-142 -166 0
-142 -186 0
-142 -209 0
-166 -186 0
-166 -209 0
-186 -209 0
-6 -53 0
-6 -74 0
-6 -118 0
-6 -143 0
-6 -187 0
-6 -210 0
-53 -74 0
-53 -118 0
-53 -143 0
-53 -187 0
-53 -210 0
-74 -118 0
-74 -143 0
-74 -187 0
-74 -210 0
-118 -143 0
-118 -187 0
-118 -210 0
-143 -187 0
-143 -210 0
-187 -210 0
-7 -30 0
-7 -54 0
-7 -75 0
-7 -98 0
-7 -119 0
-7 -144 0
-7 -167 0
-7 -188 0
-7 -211 0
-30 -54 0
-30 -75 0
-30 -98 0
-30 -119 0
-30 -144 0
-30 -167 0
-30 -188 0
-30 -211 0
-54 -75 0
-54 -98 0
-54 -119 0
-54 -144 0
-54 -167 0
-54 -188 0
-54 -211 0
-75 -98 0
-75 -119 0
-75 -144 0
-75 -167 0
-75 -188 0
-75 -211 0
-98 -119 0
-98 -144 0
-98 -167 0
-98 -188 0
-98 -211 0
-119 -144 0
-119 -167 0
-119 -188 0
-119 -211 0
-144 -167 0
-144 -188 0
-144 -211 0
-167 -188 0
-167 -211 0
-188 -211 0
-8 -31 0
-8 -55 0
-8 -76 0
-8 -99 0
-8 -120 0
-8 -145 0
-8 -168 0
-8 -189 0
-8 -212 0
-31 -55 0
-31 -76 0
-31 -99 0
-31 -120 0
-31 -145 0
-31 -168 0
-31 -189 0
-31 -212 0
-55 -76 0
-55 -99 0
-55 -120 0
-55 -145 0
-55 -168 0
-55 -189 0
-55 -212 0
-76 -99 0
-76 -120 0
-76 -145 0
-76 -168 0
-76 -189 0
-76 -212 0
-99 -120 0
-99 -145 0
-99 -168 0
-99 -189 0
-99 -212 0
-120 -145 0
-120 -168 0
-120 -189 0
-120 -212 0
-145 -168 0
-145 -189 0
-145 -212 0
-168 -189 0
-168 -212 0
-189 -212 0
-9 -32 0
-9 -56 0
-9 -77 0
-9 -100 0
-9 -121 0
-9 -146 0
-9 -190 0
-9 -213 0
-32 -56 0
-32 -77 0
-32 -100 0
-32 -121 0
-32 -146 0
-32 -190 0
-32 -213 0
-56 -77 0
-56 -100 0
-56 -121 0
-56 -146 0
-56 -190 0
-56 -213 0
-77 -100 0
-77 -121 0
-77 -146 0
-77 -190 0
-77 -213 0
-100 -121 0
-100 -146 0
-100 -190 0
-100 -213 0
-121 -146 0
-121 -190 0
-121 -213 0
-146 -190 0
-146 -213 0
-190 -213 0
-10 -33 0
-10 -57 0
-10 -78 0
-10 -122 0
-10 -147 0
-10 -191 0
-10 -214 0
-33 -57 0
-33 -78 0
-33 -122 0
-33 -147 0
-33 -191 0
-33 -214 0
-57 -78 0
-57 -122 0
-57 -147 0
-57 -191 0
-57 -214 0
-78 -122 0
-78 -147 0
-78 -191 0
-78 -214 0
-122 -147 0
-122 -191 0
-122 -214 0
-147 -191 0
-147 -214 0
-191 -214 0
-11 -58 0
-11 -79 0
-11 -123 0
-11 -148 0
-11 -169 0
-11 -192 0
-11 -215 0
-58 -79 0
-58 -123 0
-58 -148 0
-58 -169 0
-58 -192 0
-58 -215 0
-79 -123 0
-79 -148 0
-79 -169 0
-79 -192 0
-79 -215 0
-123 -148 0
-123 -169 0
-123 -192 0
-123 -215 0
-148 -169 0
-148 -192 0
-148 -215 0
-169 -192 0
-169 -215 0
-192 -215 0
-12 -34 0
-12 -59 0
-12 -101 0
-12 -124 0
-12 -149 0
-12 -170 0
-12 -193 0
-34 -59 0
-34 -101 0
-34 -124 0
-34 -149 0
-34 -170 0
-34 -193 0
-59 -101 0
-59 -124 0
-59 -149 0
-59 -170 0
-59 -193 0
-101 -124 0
-101 -149 0
-101 -170 0
-101 -193 0
-124 -149 0
-124 -170 0
-124 -193 0
-149 -170 0
-149 -193 0
-170 -193 0
-13 -35 0
-13 -60 0
-13 -80 0
-13 -102 0
-13 -125 0
-13 -150 0
-13 -194 0
-13 -216 0
-35 -60 0
-35 -80 0
-35 -102 0
-35 -125 0
-35 -150 0
-35 -194 0
-35 -216 0
-60 -80 0
-60 -102 0
-60 -125 0
-60 -150 0
-60 -194 0
-60 -216 0
-80 -102 0
-80 -125 0
-80 -150 0
-80 -194 0
-80 -216 0
-102 -125 0
-102 -150 0
-102 -194 0
-102 -216 0
-125 -150 0
-125 -194 0
-125 -216 0
-150 -194 0
-150 -216 0
-194 -216 0
-14 -36 0
-14 -61 0
-14 -81 0
-14 -103 0
-14 -126 0
-14 -151 0
-14 -195 0
-14 -217 0
-36 -61 0
-36 -81 0
-36 -103 0
-36 -126 0
-36 -151 0
-36 -195 0
-36 -217 0
-61 -81 0
-61 -103 0
-61 -126 0
-61 -151 0
-61 -195 0
-61 -217 0
-81 -103 0
-81 -126 0
-81 -151 0
-81 -195 0
-81 -217 0
-103 -126 0
-103 -151 0
-103 -195 0
-103 -217 0
-126 -151 0
-126 -195 0
-126 -217 0
-151 -195 0
-151 -217 0
-195 -217 0
-15 -37 0
-15 -62 0
-15 -82 0
-15 -104 0
-15 -127 0
-15 -152 0
-15 -171 0
-15 -196 0
-15 -218 0
-37 -62 0
-37 -82 0
-37 -104 0
-37 -127 0
-37 -152 0
-37 -171 0
-37 -196 0
-37 -218 0
-62 -82 0
-62 -104 0
-62 -127 0
-62 -152 0
-62 -171 0
-62 -196 0
-62 -218 0
-82 -104 0
-82 -127 0
-82 -152 0
-82 -171 0
-82 -196 0
-82 -218 0
-104 -127 0
-104 -152 0
-104 -171 0
-104 -196 0
-104 -218 0
-127 -152 0
-127 -171 0
-127 -196 0
-127 -218 0
-152 -171 0
-152 -196 0
-152 -218 0
-171 -196 0
-171 -218 0
-196 -218 0
-16 -38 0
-16 -83 0
-16 -105 0
-16 -128 0
-16 -153 0
-16 -172 0
-16 -197 0
-16 -219 0
-38 -83 0
-38 -105 0
-38 -128 0
-38 -153 0
-38 -172 0
-38 -197 0
-38 -219 0
-83 -105 0
-83 -128 0
-83 -153 0
-83 -172 0
-83 -197 0
-83 -219 0
-105 -128 0
-105 -153 0
-105 -172 0
-105 -197 0
-105 -219 0
-128 -153 0
-128 -172 0
-128 -197 0
-128 -219 0
-153 -172 0
-153 -197 0
-153 -219 0
-172 -197 0
-172 -219 0
-197 -219 0
-17 -39 0
-17 -63 0
-17 -84 0
-17 -106 0
-17 -129 0
-17 -154 0
-17 -173 0
-17 -220 0
-39 -63 0
-39 -84 0
-39 -106 0
-39 -129 0
-39 -154 0
-39 -173 0
-39 -220 0
-63 -84 0
-63 -106 0
-63 -129 0
-63 -154 0
-63 -173 0
-63 -220 0
-84 -106 0
-84 -129 0
-84 -154 0
-84 -173 0
-84 -220 0
-106 -129 0
-106 -154 0
-106 -173 0
-106 -220 0
-129 -154 0
-129 -173 0
-129 -220 0
-154 -173 0
-154 -220 0
-173 -220 0
-18 -40 0
-18 -85 0
-18 -107 0
-18 -130 0
-18 -155 0
-18 -174 0
-40 -85 0
-40 -107 0
-40 -130 0
-40 -155 0
-40 -174 0
-85 -107 0
-85 -130 0
-85 -155 0
-85 -174 0
-107 -130 0
-107 -155 0
-107 -174 0
-130 -155 0
-130 -174 0
-155 -174 0
-19 -41 0
-19 -64 0
-19 -86 0
-19 -131 0
-19 -156 0
-19 -175 0
-19 -198 0
-19 -221 0
-41 -64 0
-41 -86 0
-41 -131 0
-41 -156 0
-41 -175 0
-41 -198 0
-41 -221 0
-64 -86 0
-64 -131 0
-64 -156 0
-64 -175 0
-64 -198 0
-64 -221 0
-86 -131 0
-86 -156 0
-86 -175 0
-86 -198 0
-86 -221 0
-131 -156 0
-131 -175 0
-131 -198 0
-131 -221 0
-156 -175 0
-156 -198 0
-156 -221 0
-175 -198 0
-175 -221 0
-198 -221 0
-20 -42 0
-20 -65 0
-20 -87 0
-20 -108 0
-20 -132 0
-20 -157 0
-20 -176 0
-20 -199 0
-20 -222 0
-42 -65 0
-42 -87 0
-42 -108 0
-42 -132 0
-42 -157 0
-42 -176 0
-42 -199 0
-42 -222 0
-65 -87 0
-65 -108 0
-65 -132 0
-65 -157 0
-65 -176 0
-65 -199 0
-65 -222 0
-87 -108 0
-87 -132 0
-87 -157 0
-87 -176 0
-87 -199 0
-87 -222 0
-108 -132 0
-108 -157 0
-108 -176 0
-108 -199 0
-108 -222 0
-132 -157 0
-132 -176 0
-132 -199 0
-132 -222 0
-157 -176 0
-157 -199 0
-157 -222 0
-176 -199 0
-176 -222 0
-199 -222 0
-21 -43 0
-21 -66 0
-21 -88 0
-21 -109 0
-21 -133 0
-21 -158 0
-21 -177 0
-21 -200 0
-21 -223 0
-43 -66 0
-43 -88 0
-43 -109 0
-43 -133 0
-43 -158 0
-43 -177 0
-43 -200 0
-43 -223 0
-66 -88 0
-66 -109 0
-66 -133 0
-66 -158 0
-66 -177 0
-66 -200 0
-66 -223 0
-88 -109 0
-88 -133 0
-88 -158 0
-88 -177 0
-88 -200 0
-88 -223 0
-109 -133 0
-109 -158 0
-109 -177 0
-109 -200 0
-109 -223 0
-133 -158 0
-133 -177 0
-133 -200 0
-133 -223 0
-158 -177 0
-158 -200 0
-158 -223 0
-177 -200 0
-177 -223 0
-200 -223 0
-22 -44 0
-22 -67 0
-22 -89 0
-22 -110 0
-22 -134 0
-22 -159 0
-22 -178 0
-22 -201 0
-22 -224 0
-44 -67 0
-44 -89 0
-44 -110 0
-44 -134 0
-44 -159 0
-44 -178 0
-44 -201 0
-44 -224 0
-67 -89 0
-67 -110 0
-67 -134 0
-67 -159 0
-67 -178 0
-67 -201 0
-67 -224 0
-89 -110 0
-89 -134 0
-89 -159 0
-89 -178 0
-89 -201 0
-89 -224 0
-110 -134 0
-110 -159 0
-110 -178 0
-110 -201 0
-110 -224 0
-134 -159 0
-134 -178 0
-134 -201 0
-134 -224 0
-159 -178 0
-159 -201 0
-159 -224 0
-178 -201 0
-178 -224 0
-201 -224 0
-23 -45 0
-23 -68 0
-23 -90 0
-23 -111 0
-23 -135 0
-23 -160 0
-23 -179 0
-23 -202 0
-23 -225 0
-45 -68 0
-45 -90 0
-45 -111 0
-45 -135 0
-45 -160 0
-45 -179 0
-45 -202 0
-45 -225 0
-68 -90 0
-68 -111 0
-68 -135 0
-68 -160 0
-68 -179 0
-68 -202 0
-68 -225 0
-90 -111 0
-90 -135 0
-90 -160 0
-90 -179 0
-90 -202 0
-90 -225 0
-111 -135 0
-111 -160 0
-111 -179 0
-111 -202 0
-111 -225 0
-135 -160 0
-135 -179 0
-135 -202 0
-135 -225 0
-160 -179 0
-160 -202 0
-160 -225 0
-179 -202 0
-179 -225 0
-202 -225 0
-24 -46 0
-24 -69 0
-24 -91 0
-24 -112 0
-24 -136 0
-24 -180 0
-24 -203 0
-24 -226 0
-46 -69 0
-46 -91 0
-46 -112 0
-46 -136 0
-46 -180 0
-46 -203 0
-46 -226 0
-69 -91 0
-69 -112 0
-69 -136 0
-69 -180 0
-69 -203 0
-69 -226 0
-91 -112 0
-91 -136 0
-91 -180 0
-91 -203 0
-91 -226 0
-112 -136 0
-112 -180 0
-112 -203 0
-112 -226 0
-136 -180 0
-136 -203 0
-136 -226 0
-180 -203 0
-180 -226 0
-203 -226 0
-25 -47 0
-25 -70 0
-25 -92 0
-25 -113 0
-25 -137 0
-25 -161 0
-25 -181 0
-25 -204 0
-25 -227 0
-47 -70 0
-47 -92 0
-47 -113 0
-47 -137 0
-47 -161 0
-47 -181 0
-47 -204 0
-47 -227 0
-70 -92 0
-70 -113 0
-70 -137 0
-70 -161 0
-70 -181 0
-70 -204 0
-70 -227 0
-92 -113 0
-92 -137 0
-92 -161 0
-92 -181 0
-92 -204 0
-92 -227 0
-113 -137 0
-113 -161 0
-113 -181 0
-113 -204 0
-113 -227 0
-137 -161 0
-137 -181 0
-137 -204 0
-137 -227 0
-161 -181 0
-161 -204 0
-161 -227 0
-181 -204 0
-181 -227 0
-204 -227 0